
Gurobi 12.0.3 (linux64) logging started Mon Aug 18 01:12:41 2025

Set parameter LogFile to value "logs/instance-05.txt"
Gurobi Optimizer version 12.0.3 build v12.0.3rc0 (linux64 - "Ubuntu 24.04.3 LTS")

CPU model: Intel(R) Core(TM) i5-8250U CPU @ 1.60GHz, instruction set [SSE2|AVX|AVX2]
Thread count: 4 physical cores, 8 logical processors, using up to 8 threads

Non-default parameters:
TimeLimit  900

Optimize a model with 3725 rows, 1275 columns and 9908 nonzeros
Model fingerprint: 0xf1f32a5c
Variable types: 1225 continuous, 50 integer (50 binary)
Coefficient statistics:
  Matrix range     [1e+00, 1e+00]
  Objective range  [1e+00, 1e+01]
  Bounds range     [1e+00, 1e+00]
  RHS range        [1e+00, 1e+00]
Found heuristic solution: objective 106.0000000
Presolve removed 1941 rows and 68 columns
Presolve time: 0.02s
Presolved: 1784 rows, 1207 columns, 5381 nonzeros
Variable types: 1157 continuous, 50 integer (50 binary)

Root relaxation: objective 1.561000e+03, 922 iterations, 0.03 seconds (0.03 work units)

    Nodes    |    Current Node    |     Objective Bounds      |     Work
 Expl Unexpl |  Obj  Depth IntInf | Incumbent    BestBd   Gap | It/Node Time

     0     0 1561.00000    0   50  106.00000 1561.00000  1373%     -    0s
H    0     0                     525.0000000 1561.00000   197%     -    0s
     0     0 1023.50000    0   50  525.00000 1023.50000  95.0%     -    0s
     0     0  757.57312    0   50  525.00000  757.57312  44.3%     -    1s
     0     0  714.75959    0   50  525.00000  714.75959  36.1%     -    2s
H    0     0                     556.0000000  709.43044  27.6%     -    2s
     0     0  709.43044    0   50  556.00000  709.43044  27.6%     -    2s
H    0     0                     582.0000000  707.84415  21.6%     -    2s
H    0     0                     603.0000000  707.84415  17.4%     -    2s
     0     0  707.84415    0   50  603.00000  707.84415  17.4%     -    2s
H    0     0                     612.0000000  706.97324  15.5%     -    3s
     0     0  706.97324    0   50  612.00000  706.97324  15.5%     -    3s
     0     0  706.59805    0   50  612.00000  706.59805  15.5%     -    3s
H    0     0                     646.0000000  706.59805  9.38%     -    3s
H    0     0                     648.0000000  679.51466  4.86%     -    4s
H    0     0                     649.0000000  679.51466  4.70%     -    4s
H    0     0                     665.0000000  679.51466  2.18%     -    4s
H    0     0                     670.0000000  679.51466  1.42%     -    4s
H    0     0                     675.0000000  679.51466  0.67%     -    4s
     0     0  679.51466    0   50  675.00000  679.51466  0.67%     -    4s
*    0     0               0     678.0000000  678.00000  0.00%     -    4s

Cutting planes:
  Gomory: 1
  MIR: 30
  Flow cover: 70
  RLT: 461
  BQP: 1135

Explored 1 nodes (11696 simplex iterations) in 4.07 seconds (2.50 work units)
Thread count was 8 (of 8 available processors)

Solution count 10: 678 675 670 ... 582

Optimal solution found (tolerance 1.00e-04)
Best objective 6.780000000000e+02, best bound 6.780000000000e+02, gap 0.0000%
